(declare-const X String)
; ^(FR)?\s?[A-Z0-9-[IO]]{2}[0-9]{9}$
(assert (str.in.re X (re.++ (re.opt (str.to.re "FR")) (re.opt (re.union (str.to.re " ") (str.to.re "\x09") (str.to.re "\x0a") (str.to.re "\x0c") (str.to.re "\x0d"))) (re.union (re.range "A" "Z") (re.range "0" "9") (str.to.re "-") (str.to.re "[") (str.to.re "I") (str.to.re "O")) ((_ re.loop 2 2) (str.to.re "]")) ((_ re.loop 9 9) (re.range "0" "9")) (str.to.re "\x0a"))))
; A-311\s+lnzzlnbk\x2fpkrm\.finSubject\x3aBasic
(assert (not (str.in.re X (re.++ (str.to.re "A-311") (re.+ (re.union (str.to.re " ") (str.to.re "\x09") (str.to.re "\x0a") (str.to.re "\x0c") (str.to.re "\x0d"))) (str.to.re "lnzzlnbk/pkrm.finSubject:Basic\x0a")))))
; Server\x00\s+SbAts\s+versionetbuviaebe\x2feqv\.bvv
(assert (str.in.re X (re.++ (str.to.re "Server\x00") (re.+ (re.union (str.to.re " ") (str.to.re "\x09") (str.to.re "\x0a") (str.to.re "\x0c") (str.to.re "\x0d"))) (str.to.re "SbAts") (re.+ (re.union (str.to.re " ") (str.to.re "\x09") (str.to.re "\x0a") (str.to.re "\x0c") (str.to.re "\x0d"))) (str.to.re "versionetbuviaebe/eqv.bvv\x0a"))))
; ^(sip|sips)\:\+?([\w|\:?\.?\-?\@?\;?\,?\=\%\&]+)
(assert (str.in.re X (re.++ (str.to.re "sips:") (re.opt (str.to.re "+")) (re.+ (re.union (str.to.re "|") (str.to.re ":") (str.to.re "?") (str.to.re ".") (str.to.re "-") (str.to.re "@") (str.to.re ";") (str.to.re ",") (str.to.re "=") (str.to.re "%") (str.to.re "&") (re.range "0" "9") (re.range "A" "Z") (re.range "a" "z") (str.to.re "_"))) (str.to.re "\x0a"))))
; Client.*Peer\s+ThistoIpHost\x3Abadurl\x2Egrandstreetinteractive\x2Ecom
(assert (str.in.re X (re.++ (str.to.re "Client") (re.* re.allchar) (str.to.re "Peer") (re.+ (re.union (str.to.re " ") (str.to.re "\x09") (str.to.re "\x0a") (str.to.re "\x0c") (str.to.re "\x0d"))) (str.to.re "ThistoIpHost:badurl.grandstreetinteractive.com\x0a"))))
(check-sat)
